CPXPARAM_MIP_Strategy_HeuristicFreq#P37#0#2.266243#0.586062
CPXPARAM_MIP_Strategy_HeuristicFreq#P37#20#2.235921#0.578221
CPXPARAM_MIP_Strategy_HeuristicFreq#P37#40#3.866900#1.000000
CPXPARAM_MIP_Strategy_HeuristicFreq#P37#100#2.941930#0.760798
CPXPARAM_MIP_Strategy_HeuristicFreq#P37#500#2.942164#0.760859
CPXPARAM_MIP_Strategy_HeuristicFreq#P37#1000#2.941937#0.760800
